Set parameter Username
Set parameter LogFile to value "gurobi.log"
Academic license - for non-commercial use only - expires 2024-05-02
Using license file /Users/sissi/gurobi.lic

Gurobi Optimizer version 10.0.1 build v10.0.1rc0 (mac64[arm])
Copyright (c) 2023, Gurobi Optimization, LLC

Read OPB format model from file pbo/p_pbo_0_3217.opb
Reading time = 0.00 seconds
(null): 2005 rows, 1057 columns, 5973 nonzeros

CPU model: Apple M2
Thread count: 8 physical cores, 8 logical processors, using up to 8 threads

Optimize a model with 2005 rows, 1057 columns and 5973 nonzeros
Model fingerprint: 0xd02ba5d3
Variable types: 0 continuous, 1057 integer (1057 binary)
Coefficient statistics:
  Matrix range     [1e+00, 1e+00]
  Objective range  [1e+00, 4e+00]
  Bounds range     [1e+00, 1e+00]
  RHS range        [1e+00, 1e+00]
Found heuristic solution: objective -358.0000000
Presolve removed 1057 rows and 539 columns
Presolve time: 0.00s
Presolved: 948 rows, 518 columns, 2844 nonzeros
Variable types: 0 continuous, 518 integer (518 binary)

Root relaxation: objective -6.070000e+02, 116 iterations, 0.00 seconds (0.00 work units)

    Nodes    |    Current Node    |     Objective Bounds      |     Work
 Expl Unexpl |  Obj  Depth IntInf | Incumbent    BestBd   Gap | It/Node Time

     0     0 -607.00000    0   44 -358.00000 -607.00000  69.6%     -    0s
     0     0 -426.46893    0  509 -358.00000 -426.46893  19.1%     -    0s
H    0     0                    -395.0000000 -403.99299  2.28%     -    1s
     0     0 -403.99299    0  512 -395.00000 -403.99299  2.28%     -    1s
     0     0 -402.66250    0  511 -395.00000 -402.66250  1.94%     -    1s
     0     0 -402.21310    0  513 -395.00000 -402.21310  1.83%     -    1s
     0     0 -401.98406    0  512 -395.00000 -401.98406  1.77%     -    1s
     0     0 -401.89428    0  512 -395.00000 -401.89428  1.75%     -    1s
     0     0 -396.00660    0  514 -395.00000 -396.00660  0.25%     -    2s
     0     0     cutoff    0      -395.00000 -395.00000  0.00%     -    2s

Cutting planes:
  MIR: 103
  Zero half: 1
  RLT: 239

Explored 1 nodes (5593 simplex iterations) in 2.21 seconds (0.87 work units)
Thread count was 8 (of 8 available processors)

Solution count 2: -395 -358 
No other solutions better than -395

Optimal solution found (tolerance 1.00e-04)
Best objective -3.950000000000e+02, best bound -3.950000000000e+02, gap 0.0000%

Wrote result file 'solution/p_0_3217.sol'

